desiredZ=[1];
nNurses = 130;
hours = 49;
demand = [5 5 2 2 22 1 15 11 23 1 23 31 9 13 24 9 27 32 7 15 4 18 12 31 23 32 26 26 12 21 3 11 30 32 5 16 13 20 19 8 28 14 25 23 32 16 19 25 7];
minHours = 9;
maxHours = 12;
maxConsec = 8;
maxPresence = 21;